WARNING: for repeatability, setting FPU to use double precision
============================[ Problem Statistics ]=============================
|                                                                             |
|  Number of variables:         12998                                         |
|  Number of clauses:           77941                                         |
|  Parse time:                   0.02 s                                       |
|                                                                             |
c ============================[ Search Statistics ]==============================
c | Conflicts |          ORIGINAL         |          LEARNT          | Progress |
c |           |    Vars  Clauses Literals |    Limit  Clauses Lit/Cl |          |
c ===============================================================================
c Switched to VSIDS.
c Switched to LRB.
c Switched to VSIDS.
c Switched to LRB.
c ===============================================================================
restarts                  : 1135
conflicts                 : 259288         (3161 /sec)
decisions                 : 7286575        (0.00 % random) (88823 /sec)
propagations              : 143272040      (1746482 /sec)
conflict literals         : 9583717        (30.13 % deleted)

conflicts w/ DIP found    : 172223         (66.42 % of conflicts)
conflicts w/ dangerous DIP: 0              (0.00 % of conflicts)
conflicts w/ DIP-learning : 131            (0.05 % of conflicts)
decisions on ext vars     : 4859           (0.07 % of decisions)
total ext vars            : 25          
tried delete ext vars     : 9           
deleted ext vars          : 9           
max ext vars              : 16          

Memory used               : 66.00 MB
CPU time                  : 82.0346 s
DIP computation time      : 1.70395 s (2.08 % of total time)
ER_sel time               : 0.268326 s
ER_add time               : 0.000187 s
ER_delC time              : 0 s
ER_delV time              : 0.001078 s
ER_sub time               : 0.395609 s
ER_stat time              : 0 s

UNSATISFIABLE
